(set-logic QF_SLIA)
(declare-fun var0 () String)
(assert (not (str.in_re var0 (re.++ ((_ re.loop 5 398) (re.++ (re.union (str.to_re "mg") (re.union (str.to_re "kLS") (re.union (str.to_re "C") (str.to_re "<g")))) (re.++ (re.union (str.to_re "kK~") (re.union (str.to_re "r") (re.union (str.to_re "3@S") (str.to_re "fj!")))) (re.++ (re.union (str.to_re "S`") (re.union (str.to_re "^/") (re.union (str.to_re "oy") (str.to_re "y6")))) (re.union (str.to_re "r%") (re.union (str.to_re "R~|") (re.union (str.to_re "=?.") (str.to_re "G")))))))) (re.++ ((_ re.loop 15 258) (re.++ (re.union (str.to_re "3d\u0022") (re.union (str.to_re "?o") (re.union (str.to_re "\\") (str.to_re "1D")))) (re.++ (re.union (str.to_re "2") (re.union (str.to_re "73A") (re.union (str.to_re "^3") (str.to_re "]Rq")))) (re.++ (re.union (str.to_re "ER8") (re.union (str.to_re "{aX") (re.union (str.to_re "L") (str.to_re "[c")))) (re.union (str.to_re "9[J") (re.union (str.to_re "+\\") (re.union (str.to_re "=R") (str.to_re "z\u0022b")))))))) (re.++ ((_ re.loop 16 111) (re.++ (re.union (str.to_re "C[") (re.union (str.to_re "V") (re.union (str.to_re "I") (str.to_re "Dz}")))) (re.++ (re.union (str.to_re "an") (re.union (str.to_re "y") (re.union (str.to_re "2") (str.to_re "0V")))) (re.++ (re.union (str.to_re "*") (re.union (str.to_re "m") (re.union (str.to_re ":3<") (str.to_re "oCs")))) (re.union (str.to_re "hZz") (re.union (str.to_re "Iw") (re.union (str.to_re "d^") (str.to_re "Jf")))))))) ((_ re.loop 14 440) (re.++ (re.union (str.to_re "b@^") (re.union (str.to_re "CT") (re.union (str.to_re "a") (str.to_re "G~B")))) (re.++ (re.union (str.to_re "%\\e") (re.union (str.to_re "-o") (re.union (str.to_re ",F") (str.to_re "c")))) (re.++ (re.union (str.to_re "%") (re.union (str.to_re "Vg") (re.union (str.to_re "*EX") (str.to_re "BU=")))) (re.union (str.to_re "L\u00224") (re.union (str.to_re "Z|") (re.union (str.to_re "MT") (str.to_re ":"))))))))))))))
(assert (not (str.in_re var0 (re.++ ((_ re.loop 20 196) (re.++ (re.union (str.to_re "&B") (re.union (str.to_re "?") (re.union (str.to_re "/T") (str.to_re "x-")))) (re.++ (re.union (str.to_re "I8") (re.union (str.to_re "-sx") (re.union (str.to_re "YY") (str.to_re "Q)")))) (re.++ (re.union (str.to_re ")y") (re.union (str.to_re "V~t") (re.union (str.to_re "!&") (str.to_re "K")))) (re.union (str.to_re "\u0022") (re.union (str.to_re "O-") (re.union (str.to_re "BlP") (str.to_re "a")))))))) (re.++ ((_ re.loop 20 604) (re.++ (re.union (str.to_re "](i") (re.union (str.to_re "Ip") (re.union (str.to_re "v7") (str.to_re "r:l")))) (re.++ (re.union (str.to_re "}") (re.union (str.to_re "K") (re.union (str.to_re "&") (str.to_re "*")))) (re.++ (re.union (str.to_re "b\\") (re.union (str.to_re "kQ") (re.union (str.to_re "@") (str.to_re "#r")))) (re.union (str.to_re "^") (re.union (str.to_re "/F") (re.union (str.to_re "T") (str.to_re "I`")))))))) (re.++ ((_ re.loop 2 508) (re.++ (re.union (str.to_re "}") (re.union (str.to_re "U") (re.union (str.to_re "CW") (str.to_re ":]")))) (re.++ (re.union (str.to_re "<N[") (re.union (str.to_re "U6") (re.union (str.to_re "OV") (str.to_re "4")))) (re.++ (re.union (str.to_re "j+") (re.union (str.to_re "D*l") (re.union (str.to_re "^\u0022") (str.to_re "`")))) (re.union (str.to_re "n") (re.union (str.to_re "<-") (re.union (str.to_re "-") (str.to_re "!+")))))))) ((_ re.loop 6 566) (re.++ (re.union (str.to_re "^^v") (re.union (str.to_re "CCK") (re.union (str.to_re "w") (str.to_re "#SU")))) (re.++ (re.union (str.to_re "<:") (re.union (str.to_re "w") (re.union (str.to_re "QR") (str.to_re "b0S")))) (re.++ (re.union (str.to_re "<") (re.union (str.to_re ",g") (re.union (str.to_re "j") (str.to_re "z.W")))) (re.union (str.to_re ";") (re.union (str.to_re "Ik") (re.union (str.to_re "-?6") (str.to_re "Ki:"))))))))))))))
(assert (not (str.in_re var0 (re.++ (re.* re.allchar) (re.++ (re.union (str.to_re "<") (re.union (str.to_re ">") (re.union (str.to_re "'") (re.union (str.to_re "\u0022") (str.to_re "&"))))) (re.* re.allchar))))))
(assert (<= 50 (str.len var0)))
(check-sat)
(get-model)
